(set-info :source |printed by MathSAT|)
(declare-fun call_mesi.garde_me4.next () Bool)
(declare-fun call_mesi.ite30.next () Int)
(declare-fun call_Sofar.flby.next () Bool)
(declare-fun call_mesi.ite22 () Int)
(declare-fun call_mesi.ite17 () Int)
(declare-fun call_mesi.ite29.next () Int)
(declare-fun call_mesi.modified_me.next () Int)
(declare-fun call_mesi.ite3.next () Int)
(declare-fun call_Sofar.flby () Bool)
(declare-fun call_mesi.ite29 () Int)
(declare-fun call_mesi.ite6 () Int)
(declare-fun _OK_ () Bool)
(declare-fun call_mesi.shared_me () Int)
(declare-fun call_mesi.ite25.next () Int)
(declare-fun call_mesi.ite10.next () Int)
(declare-fun call_Abs4.Abs () Int)
(declare-fun param_etat_me3 () Bool)
(declare-fun call_mesi.ite25 () Int)
(declare-fun call_excludes4.excludes.next () Bool)
(declare-fun env () Bool)
(declare-fun param_etat_me2 () Bool)
(declare-fun param_etat_me4 () Bool)
(declare-fun call_mesi.ite18 () Int)
(declare-fun call_mesi.ite8.next () Int)
(declare-fun call_mesi.ite4.next () Int)
(declare-fun call_Abs2.Abs.next () Int)
(declare-fun call_mesi.ite30 () Int)
(declare-fun call_Sofar.Sofar () Bool)
(declare-fun call_mesi.garde_me2.next () Bool)
(declare-fun call_Abs.ite () Int)
(declare-fun call_mesi.ite19 () Int)
(declare-fun call_mesi.ite15 () Int)
(declare-fun call_mesi.ite24 () Int)
(declare-fun call_mesi.ite8 () Int)
(declare-fun call_mesi.ite22.next () Int)
(declare-fun invalid_me.next () Int)
(declare-fun call_mesi.flby3 () Int)
(declare-fun call_mesi.ite13 () Int)
(declare-fun call_mesi.ite26.next () Int)
(declare-fun call_Abs3.Abs () Int)
(declare-fun param_etat_me3.next () Bool)
(declare-fun call_mesi.ite17.next () Int)
(declare-fun call_Abs2.Abs () Int)
(declare-fun modified_me () Int)
(declare-fun shared_me.next () Int)
(declare-fun call_mesi.flby () Int)
(declare-fun call_Abs4.ite () Int)
(declare-fun call_mesi.exclusive_me () Int)
(declare-fun call_excludes4.excludes () Bool)
(declare-fun call_mesi.ite32 () Int)
(declare-fun param_etat_me4.next () Bool)
(declare-fun param_etat_me1.next () Bool)
(declare-fun call_mesi.ite28.next () Int)
(declare-fun call_mesi.flby3.next () Int)
(declare-fun call_mesi.ite16.next () Int)
(declare-fun call_mesi.ite9.next () Int)
(declare-fun call_mesi.ite11.next () Int)
(declare-fun call_mesi.ite14.next () Int)
(declare-fun call_mesi.ite2 () Int)
(declare-fun call_Abs4.ite.next () Int)
(declare-fun call_mesi.ite26 () Int)
(declare-fun call_mesi.invalid_me () Int)
(declare-fun call_mesi.ite12.next () Int)
(declare-fun call_mesi.ite19.next () Int)
(declare-fun call_Abs3.Abs.next () Int)
(declare-fun call_mesi.ite13.next () Int)
(declare-fun shared_me () Int)
(declare-fun call_mesi.ite5 () Int)
(declare-fun call_mesi.ite6.next () Int)
(declare-fun call_Abs3.ite () Int)
(declare-fun call_Abs3.ite.next () Int)
(declare-fun call_mesi.ite32.next () Int)
(declare-fun param_etat_me1 () Bool)
(declare-fun call_Abs2.ite () Int)
(declare-fun call_mesi.ite5.next () Int)
(declare-fun modified_me.next () Int)
(declare-fun call_mesi.ite23.next () Int)
(declare-fun call_mesi.ite16 () Int)
(declare-fun call_mesi.ite7 () Int)
(declare-fun exclusive_me.next () Int)
(declare-fun _OK_.next () Bool)
(declare-fun call_mesi.ite27.next () Int)
(declare-fun exclusive_me () Int)
(declare-fun call_Abs2.ite.next () Int)
(declare-fun call_Sofar.Sofar.next () Bool)
(declare-fun call_mesi.ite20.next () Int)
(declare-fun call_mesi.invalid_me.next () Int)
(declare-fun call_mesi.ite21.next () Int)
(declare-fun call_mesi.ite23 () Int)
(declare-fun call_mesi.flby4 () Int)
(declare-fun call_mesi.modified_me () Int)
(declare-fun call_mesi.ite.next () Int)
(declare-fun invalid_me () Int)
(declare-fun call_mesi.ite31 () Int)
(declare-fun call_mesi.flby.next () Int)
(declare-fun env.next () Bool)
(declare-fun param_etat_me2.next () Bool)
(declare-fun call_mesi.ite31.next () Int)
(declare-fun call_mesi.ite10 () Int)
(declare-fun call_mesi.shared_me.next () Int)
(declare-fun call_mesi.ite18.next () Int)
(declare-fun call_mesi.ite11 () Int)
(declare-fun call_mesi.flby2 () Int)
(declare-fun call_mesi.ite27 () Int)
(declare-fun call_mesi.ite7.next () Int)
(declare-fun call_mesi.ite24.next () Int)
(declare-fun call_mesi.ite14 () Int)
(declare-fun call_mesi.exclusive_me.next () Int)
(declare-fun call_mesi.ite3 () Int)
(declare-fun call_Abs.ite.next () Int)
(declare-fun call_mesi.ite9 () Int)
(declare-fun call_mesi.garde_me1.next () Bool)
(declare-fun call_mesi.ite21 () Int)
(declare-fun call_mesi.flby2.next () Int)
(declare-fun call_Abs4.Abs.next () Int)
(declare-fun call_Abs.Abs () Int)
(declare-fun call_Abs.Abs.next () Int)
(declare-fun call_mesi.ite15.next () Int)
(declare-fun call_mesi.flby4.next () Int)
(declare-fun call_mesi.ite2.next () Int)
(declare-fun call_mesi.garde_me3.next () Bool)
(declare-fun call_mesi.ite () Int)
(define-fun .def_1374 () Bool (= call_Abs4.Abs.next call_Abs4.ite.next))
(define-fun .def_1372 () Bool (= call_Abs3.Abs.next call_Abs3.ite.next))
(define-fun .def_1370 () Bool (= call_Abs2.Abs.next call_Abs2.ite.next))
(define-fun .def_1368 () Bool (= call_Abs.Abs.next call_Abs.ite.next))
(define-fun .def_1366 () Bool (= call_Sofar.flby.next call_Sofar.Sofar.next))
(define-fun .def_1361 () Bool (and param_etat_me4.next param_etat_me3.next))
(define-fun .def_1359 () Bool (and param_etat_me4.next param_etat_me2.next))
(define-fun .def_1357 () Bool (and param_etat_me3.next param_etat_me2.next))
(define-fun .def_1354 () Bool (and param_etat_me2.next param_etat_me1.next))
(define-fun .def_1353 () Bool (and param_etat_me3.next param_etat_me1.next))
(define-fun .def_1355 () Bool (or .def_1353 .def_1354))
(define-fun .def_1352 () Bool (and param_etat_me4.next param_etat_me1.next))
(define-fun .def_1356 () Bool (or .def_1352 .def_1355))
(define-fun .def_1358 () Bool (or .def_1356 .def_1357))
(define-fun .def_1360 () Bool (or .def_1358 .def_1359))
(define-fun .def_1362 () Bool (or .def_1360 .def_1361))
(define-fun .def_1363 () Bool (not .def_1362))
(define-fun .def_1364 () Bool (= call_excludes4.excludes.next .def_1363))
(define-fun .def_1350 () Bool (= call_mesi.flby4.next call_mesi.invalid_me.next))
(define-fun .def_1348 () Bool (= call_mesi.flby3.next call_mesi.shared_me.next))
(define-fun .def_1346 () Bool (= call_mesi.flby2.next call_mesi.exclusive_me.next))
(define-fun .def_1344 () Bool (= call_mesi.flby.next call_mesi.modified_me.next))
(define-fun .def_1340 () Bool (= call_mesi.ite32.next call_mesi.ite31.next))
(define-fun .def_1341 () Bool (or param_etat_me1.next .def_1340))
(define-fun .def_1337 () Bool (= call_mesi.ite25.next call_mesi.ite32.next))
(define-fun .def_1322 () Bool (not param_etat_me1.next))
(define-fun .def_1338 () Bool (or .def_1322 .def_1337))
(define-fun .def_1334 () Bool (= call_mesi.ite24.next call_mesi.ite23.next))
(define-fun .def_1335 () Bool (or param_etat_me1.next .def_1334))
(define-fun .def_1331 () Bool (= call_mesi.ite17.next call_mesi.ite24.next))
(define-fun .def_1332 () Bool (or .def_1322 .def_1331))
(define-fun .def_1328 () Bool (= call_mesi.ite16.next call_mesi.ite15.next))
(define-fun .def_1329 () Bool (or param_etat_me1.next .def_1328))
(define-fun .def_1325 () Bool (= call_mesi.ite9.next call_mesi.ite16.next))
(define-fun .def_1326 () Bool (or .def_1322 .def_1325))
(define-fun .def_1321 () Bool (= call_mesi.ite.next call_mesi.ite8.next))
(define-fun .def_1323 () Bool (or .def_1321 .def_1322))
(define-fun .def_1318 () Bool (= call_mesi.ite8.next call_mesi.ite7.next))
(define-fun .def_1320 () Bool (or .def_1318 param_etat_me1.next))
(define-fun .def_1324 () Bool (and .def_1320 .def_1323))
(define-fun .def_1327 () Bool (and .def_1324 .def_1326))
(define-fun .def_1330 () Bool (and .def_1327 .def_1329))
(define-fun .def_1333 () Bool (and .def_1330 .def_1332))
(define-fun .def_1336 () Bool (and .def_1333 .def_1335))
(define-fun .def_1339 () Bool (and .def_1336 .def_1338))
(define-fun .def_1342 () Bool (and .def_1339 .def_1341))
(define-fun .def_1316 () Bool (= env.next call_Sofar.Sofar.next))
(define-fun .def_1312 () Bool (= invalid_me.next call_mesi.invalid_me.next))
(define-fun .def_1307 () Int (+ invalid_me.next call_Abs4.ite.next))
(define-fun .def_1308 () Bool (= .def_1307 0))
(define-fun .def_1304 () Bool (<= 0 invalid_me.next))
(define-fun .def_1309 () Bool (or .def_1304 .def_1308))
(define-fun .def_1305 () Bool (not .def_1304))
(define-fun .def_1303 () Bool (= invalid_me.next call_Abs4.ite.next))
(define-fun .def_1306 () Bool (or .def_1303 .def_1305))
(define-fun .def_1310 () Bool (and .def_1306 .def_1309))
(define-fun .def_1313 () Bool (and .def_1310 .def_1312))
(define-fun .def_1298 () Bool (= shared_me.next call_mesi.shared_me.next))
(define-fun .def_1293 () Int (+ shared_me.next call_Abs3.ite.next))
(define-fun .def_1294 () Bool (= .def_1293 0))
(define-fun .def_1290 () Bool (<= 0 shared_me.next))
(define-fun .def_1295 () Bool (or .def_1290 .def_1294))
(define-fun .def_1291 () Bool (not .def_1290))
(define-fun .def_1289 () Bool (= shared_me.next call_Abs3.ite.next))
(define-fun .def_1292 () Bool (or .def_1289 .def_1291))
(define-fun .def_1296 () Bool (and .def_1292 .def_1295))
(define-fun .def_1299 () Bool (and .def_1296 .def_1298))
(define-fun .def_1284 () Bool (= exclusive_me.next call_mesi.exclusive_me.next))
(define-fun .def_1279 () Int (+ exclusive_me.next call_Abs2.ite.next))
(define-fun .def_1280 () Bool (= .def_1279 0))
(define-fun .def_1276 () Bool (<= 0 exclusive_me.next))
(define-fun .def_1281 () Bool (or .def_1276 .def_1280))
(define-fun .def_1277 () Bool (not .def_1276))
(define-fun .def_1275 () Bool (= exclusive_me.next call_Abs2.ite.next))
(define-fun .def_1278 () Bool (or .def_1275 .def_1277))
(define-fun .def_1282 () Bool (and .def_1278 .def_1281))
(define-fun .def_1285 () Bool (and .def_1282 .def_1284))
(define-fun .def_1270 () Bool (= modified_me.next call_mesi.modified_me.next))
(define-fun .def_1265 () Int (+ modified_me.next call_Abs.ite.next))
(define-fun .def_1266 () Bool (= .def_1265 0))
(define-fun .def_1262 () Bool (<= 0 modified_me.next))
(define-fun .def_1267 () Bool (or .def_1262 .def_1266))
(define-fun .def_1263 () Bool (not .def_1262))
(define-fun .def_1261 () Bool (= modified_me.next call_Abs.ite.next))
(define-fun .def_1264 () Bool (or .def_1261 .def_1263))
(define-fun .def_1268 () Bool (and .def_1264 .def_1267))
(define-fun .def_1271 () Bool (and .def_1268 .def_1270))
(define-fun .def_1252 () Int (+ call_Abs3.Abs.next call_Abs4.Abs.next))
(define-fun .def_1253 () Int (+ call_Abs2.Abs.next .def_1252))
(define-fun .def_1254 () Int (+ call_Abs.Abs.next .def_1253))
(define-fun .def_1255 () Bool (<= .def_1254 3))
(define-fun .def_1244 () Bool (not env.next))
(define-fun .def_1256 () Bool (or .def_1244 .def_1255))
(define-fun .def_1257 () Bool (= _OK_.next .def_1256))
(define-fun .def_1238 () Bool (= call_mesi.ite30.next call_mesi.ite31.next))
(define-fun .def_1239 () Bool (or param_etat_me2.next .def_1238))
(define-fun .def_1235 () Bool (= call_mesi.ite26.next call_mesi.ite31.next))
(define-fun .def_1217 () Bool (not param_etat_me2.next))
(define-fun .def_1236 () Bool (or .def_1217 .def_1235))
(define-fun .def_1231 () Bool (= call_mesi.ite22.next call_mesi.ite23.next))
(define-fun .def_1232 () Bool (or param_etat_me2.next .def_1231))
(define-fun .def_1228 () Bool (= call_mesi.ite18.next call_mesi.ite23.next))
(define-fun .def_1229 () Bool (or .def_1217 .def_1228))
(define-fun .def_1224 () Bool (= call_mesi.ite14.next call_mesi.ite15.next))
(define-fun .def_1225 () Bool (or param_etat_me2.next .def_1224))
(define-fun .def_1221 () Bool (= call_mesi.ite10.next call_mesi.ite15.next))
(define-fun .def_1222 () Bool (or .def_1217 .def_1221))
(define-fun .def_1216 () Bool (= call_mesi.ite2.next call_mesi.ite7.next))
(define-fun .def_1218 () Bool (or .def_1216 .def_1217))
(define-fun .def_1213 () Bool (= call_mesi.ite6.next call_mesi.ite7.next))
(define-fun .def_1215 () Bool (or .def_1213 param_etat_me2.next))
(define-fun .def_1219 () Bool (and .def_1215 .def_1218))
(define-fun .def_1223 () Bool (and .def_1219 .def_1222))
(define-fun .def_1226 () Bool (and .def_1223 .def_1225))
(define-fun .def_1230 () Bool (and .def_1226 .def_1229))
(define-fun .def_1233 () Bool (and .def_1230 .def_1232))
(define-fun .def_1237 () Bool (and .def_1233 .def_1236))
(define-fun .def_1240 () Bool (and .def_1237 .def_1239))
(define-fun .def_1209 () Bool (= call_mesi.ite29.next call_mesi.ite30.next))
(define-fun .def_1210 () Bool (or param_etat_me3.next .def_1209))
(define-fun .def_1206 () Bool (= call_mesi.ite27.next call_mesi.ite30.next))
(define-fun .def_1188 () Bool (not param_etat_me3.next))
(define-fun .def_1207 () Bool (or .def_1188 .def_1206))
(define-fun .def_1202 () Bool (= call_mesi.ite21.next call_mesi.ite22.next))
(define-fun .def_1203 () Bool (or param_etat_me3.next .def_1202))
(define-fun .def_1199 () Bool (= call_mesi.ite19.next call_mesi.ite22.next))
(define-fun .def_1200 () Bool (or .def_1188 .def_1199))
(define-fun .def_1195 () Bool (= call_mesi.ite13.next call_mesi.ite14.next))
(define-fun .def_1196 () Bool (or param_etat_me3.next .def_1195))
(define-fun .def_1192 () Bool (= call_mesi.ite11.next call_mesi.ite14.next))
(define-fun .def_1193 () Bool (or .def_1188 .def_1192))
(define-fun .def_1187 () Bool (= call_mesi.ite3.next call_mesi.ite6.next))
(define-fun .def_1189 () Bool (or .def_1187 .def_1188))
(define-fun .def_1184 () Bool (= call_mesi.ite5.next call_mesi.ite6.next))
(define-fun .def_1186 () Bool (or .def_1184 param_etat_me3.next))
(define-fun .def_1190 () Bool (and .def_1186 .def_1189))
(define-fun .def_1194 () Bool (and .def_1190 .def_1193))
(define-fun .def_1197 () Bool (and .def_1194 .def_1196))
(define-fun .def_1201 () Bool (and .def_1197 .def_1200))
(define-fun .def_1204 () Bool (and .def_1201 .def_1203))
(define-fun .def_1208 () Bool (and .def_1204 .def_1207))
(define-fun .def_1211 () Bool (and .def_1208 .def_1210))
(define-fun .def_1241 () Bool (and .def_1211 .def_1240))
(define-fun .def_1258 () Bool (and .def_1241 .def_1257))
(define-fun .def_1272 () Bool (and .def_1258 .def_1271))
(define-fun .def_1286 () Bool (and .def_1272 .def_1285))
(define-fun .def_1300 () Bool (and .def_1286 .def_1299))
(define-fun .def_1314 () Bool (and .def_1300 .def_1313))
(define-fun .def_1317 () Bool (and .def_1314 .def_1316))
(define-fun .def_1343 () Bool (and .def_1317 .def_1342))
(define-fun .def_1345 () Bool (and .def_1343 .def_1344))
(define-fun .def_1347 () Bool (and .def_1345 .def_1346))
(define-fun .def_1349 () Bool (and .def_1347 .def_1348))
(define-fun .def_1351 () Bool (and .def_1349 .def_1350))
(define-fun .def_1365 () Bool (and .def_1351 .def_1364))
(define-fun .def_1367 () Bool (and .def_1365 .def_1366))
(define-fun .def_1369 () Bool (and .def_1367 .def_1368))
(define-fun .def_1371 () Bool (and .def_1369 .def_1370))
(define-fun .def_1373 () Bool (and .def_1371 .def_1372))
(define-fun .def_1375 () Bool (and .def_1373 .def_1374))
(define-fun .def_914 () Bool (= call_Abs4.Abs call_Abs4.ite))
(define-fun .def_912 () Bool (= call_Abs3.Abs call_Abs3.ite))
(define-fun .def_910 () Bool (= call_Abs2.Abs call_Abs2.ite))
(define-fun .def_908 () Bool (= call_Abs.Abs call_Abs.ite))
(define-fun .def_906 () Bool (= call_Sofar.Sofar call_Sofar.flby))
(define-fun .def_899 () Bool (and param_etat_me3 param_etat_me4))
(define-fun .def_897 () Bool (and param_etat_me2 param_etat_me4))
(define-fun .def_895 () Bool (and param_etat_me3 param_etat_me2))
(define-fun .def_892 () Bool (and param_etat_me2 param_etat_me1))
(define-fun .def_891 () Bool (and param_etat_me3 param_etat_me1))
(define-fun .def_893 () Bool (or .def_891 .def_892))
(define-fun .def_890 () Bool (and param_etat_me1 param_etat_me4))
(define-fun .def_894 () Bool (or .def_890 .def_893))
(define-fun .def_896 () Bool (or .def_894 .def_895))
(define-fun .def_898 () Bool (or .def_896 .def_897))
(define-fun .def_900 () Bool (or .def_898 .def_899))
(define-fun .def_901 () Bool (not .def_900))
(define-fun .def_903 () Bool (= .def_901 call_excludes4.excludes))
(define-fun .def_887 () Bool (= call_mesi.invalid_me call_mesi.flby4))
(define-fun .def_884 () Bool (= call_mesi.shared_me call_mesi.flby3))
(define-fun .def_881 () Bool (= call_mesi.exclusive_me call_mesi.flby2))
(define-fun .def_878 () Bool (= call_mesi.modified_me call_mesi.flby))
(define-fun .def_873 () Bool (= call_mesi.ite31 call_mesi.ite32))
(define-fun .def_874 () Bool (or param_etat_me1 .def_873))
(define-fun .def_870 () Bool (= call_mesi.ite25 call_mesi.ite32))
(define-fun .def_849 () Bool (not param_etat_me1))
(define-fun .def_871 () Bool (or .def_849 .def_870))
(define-fun .def_865 () Bool (= call_mesi.ite23 call_mesi.ite24))
(define-fun .def_866 () Bool (or param_etat_me1 .def_865))
(define-fun .def_862 () Bool (= call_mesi.ite17 call_mesi.ite24))
(define-fun .def_863 () Bool (or .def_849 .def_862))
(define-fun .def_857 () Bool (= call_mesi.ite15 call_mesi.ite16))
(define-fun .def_858 () Bool (or param_etat_me1 .def_857))
(define-fun .def_854 () Bool (= call_mesi.ite16 call_mesi.ite9))
(define-fun .def_855 () Bool (or .def_849 .def_854))
(define-fun .def_848 () Bool (= call_mesi.ite8 call_mesi.ite))
(define-fun .def_850 () Bool (or .def_848 .def_849))
(define-fun .def_844 () Bool (= call_mesi.ite7 call_mesi.ite8))
(define-fun .def_846 () Bool (or .def_844 param_etat_me1))
(define-fun .def_851 () Bool (and .def_846 .def_850))
(define-fun .def_856 () Bool (and .def_851 .def_855))
(define-fun .def_859 () Bool (and .def_856 .def_858))
(define-fun .def_864 () Bool (and .def_859 .def_863))
(define-fun .def_867 () Bool (and .def_864 .def_866))
(define-fun .def_872 () Bool (and .def_867 .def_871))
(define-fun .def_875 () Bool (and .def_872 .def_874))
(define-fun .def_841 () Bool (= env call_Sofar.Sofar))
(define-fun .def_837 () Bool (= invalid_me call_mesi.invalid_me))
(define-fun .def_832 () Int (+ invalid_me call_Abs4.ite))
(define-fun .def_833 () Bool (= .def_832 0))
(define-fun .def_829 () Bool (<= 0 invalid_me))
(define-fun .def_834 () Bool (or .def_829 .def_833))
(define-fun .def_830 () Bool (not .def_829))
(define-fun .def_828 () Bool (= invalid_me call_Abs4.ite))
(define-fun .def_831 () Bool (or .def_828 .def_830))
(define-fun .def_835 () Bool (and .def_831 .def_834))
(define-fun .def_838 () Bool (and .def_835 .def_837))
(define-fun .def_823 () Bool (= shared_me call_mesi.shared_me))
(define-fun .def_818 () Int (+ shared_me call_Abs3.ite))
(define-fun .def_819 () Bool (= .def_818 0))
(define-fun .def_815 () Bool (<= 0 shared_me))
(define-fun .def_820 () Bool (or .def_815 .def_819))
(define-fun .def_816 () Bool (not .def_815))
(define-fun .def_814 () Bool (= shared_me call_Abs3.ite))
(define-fun .def_817 () Bool (or .def_814 .def_816))
(define-fun .def_821 () Bool (and .def_817 .def_820))
(define-fun .def_824 () Bool (and .def_821 .def_823))
(define-fun .def_809 () Bool (= exclusive_me call_mesi.exclusive_me))
(define-fun .def_804 () Int (+ exclusive_me call_Abs2.ite))
(define-fun .def_805 () Bool (= .def_804 0))
(define-fun .def_801 () Bool (<= 0 exclusive_me))
(define-fun .def_806 () Bool (or .def_801 .def_805))
(define-fun .def_802 () Bool (not .def_801))
(define-fun .def_800 () Bool (= exclusive_me call_Abs2.ite))
(define-fun .def_803 () Bool (or .def_800 .def_802))
(define-fun .def_807 () Bool (and .def_803 .def_806))
(define-fun .def_810 () Bool (and .def_807 .def_809))
(define-fun .def_795 () Bool (= modified_me call_mesi.modified_me))
(define-fun .def_790 () Int (+ modified_me call_Abs.ite))
(define-fun .def_791 () Bool (= .def_790 0))
(define-fun .def_787 () Bool (<= 0 modified_me))
(define-fun .def_792 () Bool (or .def_787 .def_791))
(define-fun .def_788 () Bool (not .def_787))
(define-fun .def_786 () Bool (= modified_me call_Abs.ite))
(define-fun .def_789 () Bool (or .def_786 .def_788))
(define-fun .def_793 () Bool (and .def_789 .def_792))
(define-fun .def_796 () Bool (and .def_793 .def_795))
(define-fun .def_777 () Int (+ call_Abs3.Abs call_Abs4.Abs))
(define-fun .def_778 () Int (+ call_Abs2.Abs .def_777))
(define-fun .def_779 () Int (+ call_Abs.Abs .def_778))
(define-fun .def_780 () Bool (<= .def_779 3))
(define-fun .def_769 () Bool (not env))
(define-fun .def_781 () Bool (or .def_769 .def_780))
(define-fun .def_782 () Bool (= _OK_ .def_781))
(define-fun .def_763 () Bool (= call_mesi.ite30 call_mesi.ite31))
(define-fun .def_764 () Bool (or param_etat_me2 .def_763))
(define-fun .def_760 () Bool (= call_mesi.ite26 call_mesi.ite31))
(define-fun .def_739 () Bool (not param_etat_me2))
(define-fun .def_761 () Bool (or .def_739 .def_760))
(define-fun .def_755 () Bool (= call_mesi.ite22 call_mesi.ite23))
(define-fun .def_756 () Bool (or param_etat_me2 .def_755))
(define-fun .def_752 () Bool (= call_mesi.ite18 call_mesi.ite23))
(define-fun .def_753 () Bool (or .def_739 .def_752))
(define-fun .def_747 () Bool (= call_mesi.ite14 call_mesi.ite15))
(define-fun .def_748 () Bool (or param_etat_me2 .def_747))
(define-fun .def_744 () Bool (= call_mesi.ite10 call_mesi.ite15))
(define-fun .def_745 () Bool (or .def_739 .def_744))
(define-fun .def_738 () Bool (= call_mesi.ite7 call_mesi.ite2))
(define-fun .def_740 () Bool (or .def_738 .def_739))
(define-fun .def_734 () Bool (= call_mesi.ite6 call_mesi.ite7))
(define-fun .def_736 () Bool (or .def_734 param_etat_me2))
(define-fun .def_741 () Bool (and .def_736 .def_740))
(define-fun .def_746 () Bool (and .def_741 .def_745))
(define-fun .def_749 () Bool (and .def_746 .def_748))
(define-fun .def_754 () Bool (and .def_749 .def_753))
(define-fun .def_757 () Bool (and .def_754 .def_756))
(define-fun .def_762 () Bool (and .def_757 .def_761))
(define-fun .def_765 () Bool (and .def_762 .def_764))
(define-fun .def_730 () Bool (= call_mesi.ite30 call_mesi.ite29))
(define-fun .def_731 () Bool (or param_etat_me3 .def_730))
(define-fun .def_726 () Bool (= call_mesi.ite27 call_mesi.ite30))
(define-fun .def_703 () Bool (not param_etat_me3))
(define-fun .def_727 () Bool (or .def_703 .def_726))
(define-fun .def_721 () Bool (= call_mesi.ite22 call_mesi.ite21))
(define-fun .def_722 () Bool (or param_etat_me3 .def_721))
(define-fun .def_717 () Bool (= call_mesi.ite22 call_mesi.ite19))
(define-fun .def_718 () Bool (or .def_703 .def_717))
(define-fun .def_712 () Bool (= call_mesi.ite14 call_mesi.ite13))
(define-fun .def_713 () Bool (or param_etat_me3 .def_712))
(define-fun .def_708 () Bool (= call_mesi.ite14 call_mesi.ite11))
(define-fun .def_709 () Bool (or .def_703 .def_708))
(define-fun .def_702 () Bool (= call_mesi.ite6 call_mesi.ite3))
(define-fun .def_704 () Bool (or .def_702 .def_703))
(define-fun .def_698 () Bool (= call_mesi.ite6 call_mesi.ite5))
(define-fun .def_700 () Bool (or .def_698 param_etat_me3))
(define-fun .def_705 () Bool (and .def_700 .def_704))
(define-fun .def_710 () Bool (and .def_705 .def_709))
(define-fun .def_714 () Bool (and .def_710 .def_713))
(define-fun .def_719 () Bool (and .def_714 .def_718))
(define-fun .def_723 () Bool (and .def_719 .def_722))
(define-fun .def_728 () Bool (and .def_723 .def_727))
(define-fun .def_732 () Bool (and .def_728 .def_731))
(define-fun .def_766 () Bool (and .def_732 .def_765))
(define-fun .def_783 () Bool (and .def_766 .def_782))
(define-fun .def_797 () Bool (and .def_783 .def_796))
(define-fun .def_811 () Bool (and .def_797 .def_810))
(define-fun .def_825 () Bool (and .def_811 .def_824))
(define-fun .def_839 () Bool (and .def_825 .def_838))
(define-fun .def_842 () Bool (and .def_839 .def_841))
(define-fun .def_876 () Bool (and .def_842 .def_875))
(define-fun .def_879 () Bool (and .def_876 .def_878))
(define-fun .def_882 () Bool (and .def_879 .def_881))
(define-fun .def_885 () Bool (and .def_882 .def_884))
(define-fun .def_888 () Bool (and .def_885 .def_887))
(define-fun .def_904 () Bool (and .def_888 .def_903))
(define-fun .def_907 () Bool (and .def_904 .def_906))
(define-fun .def_909 () Bool (and .def_907 .def_908))
(define-fun .def_911 () Bool (and .def_909 .def_910))
(define-fun .def_913 () Bool (and .def_911 .def_912))
(define-fun .def_915 () Bool (and .def_913 .def_914))
(define-fun .def_1376 () Bool (and .def_915 .def_1375))
(define-fun .def_1179 () Bool (and call_Sofar.Sofar call_excludes4.excludes.next))
(define-fun .def_1181 () Bool (= .def_1179 call_Sofar.flby.next))
(define-fun .def_1176 () Bool (= call_mesi.ite32.next call_mesi.flby4.next))
(define-fun .def_1172 () Bool (= call_mesi.ite24.next call_mesi.flby3.next))
(define-fun .def_1168 () Bool (= call_mesi.ite16.next call_mesi.flby2.next))
(define-fun .def_1164 () Bool (= call_mesi.ite8.next call_mesi.flby.next))
(define-fun .def_1132 () Bool (<= 1 call_mesi.invalid_me))
(define-fun .def_1159 () Bool (= call_mesi.garde_me4.next .def_1132))
(define-fun .def_1156 () Bool (= call_mesi.ite20.next 0))
(define-fun .def_1035 () Bool (not call_mesi.garde_me4.next))
(define-fun .def_1157 () Bool (or .def_1035 .def_1156))
(define-fun .def_1153 () Bool (= call_mesi.ite4.next 0))
(define-fun .def_1154 () Bool (or .def_1035 .def_1153))
(define-fun .def_1151 () Bool (= call_mesi.ite12.next 1))
(define-fun .def_1152 () Bool (or .def_1035 .def_1151))
(define-fun .def_1155 () Bool (and .def_1152 .def_1154))
(define-fun .def_1158 () Bool (and .def_1155 .def_1157))
(define-fun .def_1160 () Bool (and .def_1158 .def_1159))
(define-fun .def_1147 () Bool (<= 1 call_mesi.shared_me))
(define-fun .def_1148 () Bool (= call_mesi.garde_me3.next .def_1147))
(define-fun .def_1144 () Bool (= call_mesi.ite19.next 0))
(define-fun .def_1021 () Bool (not call_mesi.garde_me3.next))
(define-fun .def_1145 () Bool (or .def_1021 .def_1144))
(define-fun .def_1141 () Bool (= call_mesi.ite3.next 0))
(define-fun .def_1142 () Bool (or .def_1021 .def_1141))
(define-fun .def_1139 () Bool (= call_mesi.ite11.next 1))
(define-fun .def_1140 () Bool (or .def_1021 .def_1139))
(define-fun .def_1143 () Bool (and .def_1140 .def_1142))
(define-fun .def_1146 () Bool (and .def_1143 .def_1145))
(define-fun .def_1149 () Bool (and .def_1146 .def_1148))
(define-fun .def_1136 () Bool (<= 1 call_mesi.exclusive_me))
(define-fun .def_1137 () Bool (= call_mesi.garde_me2.next .def_1136))
(define-fun .def_1133 () Bool (= call_mesi.garde_me1.next .def_1132))
(define-fun .def_1129 () Bool (= call_mesi.ite.next 0))
(define-fun .def_1007 () Bool (not call_mesi.garde_me1.next))
(define-fun .def_1130 () Bool (or .def_1007 .def_1129))
(define-fun .def_1127 () Bool (= call_mesi.ite9.next 0))
(define-fun .def_1128 () Bool (or .def_1007 .def_1127))
(define-fun .def_1131 () Bool (and .def_1128 .def_1130))
(define-fun .def_1134 () Bool (and .def_1131 .def_1133))
(define-fun .def_1123 () Bool (= call_mesi.invalid_me call_mesi.ite28.next))
(define-fun .def_1124 () Bool (or call_mesi.garde_me4.next .def_1123))
(define-fun .def_1120 () Bool (= call_mesi.invalid_me call_mesi.ite27.next))
(define-fun .def_1121 () Bool (or call_mesi.garde_me3.next .def_1120))
(define-fun .def_1115 () Bool (= call_mesi.invalid_me call_mesi.ite26.next))
(define-fun .def_1118 () Bool (or call_mesi.garde_me2.next .def_1115))
(define-fun .def_978 () Bool (not call_mesi.garde_me2.next))
(define-fun .def_1116 () Bool (or .def_978 .def_1115))
(define-fun .def_1109 () Int (* (- 1) call_mesi.ite25.next))
(define-fun .def_1110 () Int (+ call_mesi.invalid_me .def_1109))
(define-fun .def_1111 () Bool (= .def_1110 1))
(define-fun .def_1112 () Bool (or .def_1007 .def_1111))
(define-fun .def_1107 () Bool (= call_mesi.invalid_me call_mesi.ite25.next))
(define-fun .def_1108 () Bool (or call_mesi.garde_me1.next .def_1107))
(define-fun .def_1113 () Bool (and .def_1108 .def_1112))
(define-fun .def_1117 () Bool (and .def_1113 .def_1116))
(define-fun .def_1119 () Bool (and .def_1117 .def_1118))
(define-fun .def_1122 () Bool (and .def_1119 .def_1121))
(define-fun .def_1125 () Bool (and .def_1122 .def_1124))
(define-fun .def_1102 () Bool (= call_mesi.shared_me call_mesi.ite20.next))
(define-fun .def_1103 () Bool (or call_mesi.garde_me4.next .def_1102))
(define-fun .def_1099 () Bool (= call_mesi.shared_me call_mesi.ite19.next))
(define-fun .def_1100 () Bool (or call_mesi.garde_me3.next .def_1099))
(define-fun .def_1091 () Bool (= call_mesi.shared_me call_mesi.ite18.next))
(define-fun .def_1096 () Bool (or call_mesi.garde_me2.next .def_1091))
(define-fun .def_1093 () Bool (= call_mesi.shared_me call_mesi.ite17.next))
(define-fun .def_1094 () Bool (or call_mesi.garde_me1.next .def_1093))
(define-fun .def_1092 () Bool (or .def_978 .def_1091))
(define-fun .def_1095 () Bool (and .def_1092 .def_1094))
(define-fun .def_1097 () Bool (and .def_1095 .def_1096))
(define-fun .def_1101 () Bool (and .def_1097 .def_1100))
(define-fun .def_1104 () Bool (and .def_1101 .def_1103))
(define-fun .def_1086 () Bool (= call_mesi.exclusive_me call_mesi.ite12.next))
(define-fun .def_1087 () Bool (or call_mesi.garde_me4.next .def_1086))
(define-fun .def_1083 () Bool (= call_mesi.exclusive_me call_mesi.ite11.next))
(define-fun .def_1084 () Bool (or call_mesi.garde_me3.next .def_1083))
(define-fun .def_1079 () Bool (= call_mesi.exclusive_me call_mesi.ite10.next))
(define-fun .def_1080 () Bool (or call_mesi.garde_me2.next .def_1079))
(define-fun .def_1076 () Bool (= call_mesi.exclusive_me call_mesi.ite9.next))
(define-fun .def_1077 () Bool (or call_mesi.garde_me1.next .def_1076))
(define-fun .def_1071 () Int (* (- 1) call_mesi.ite10.next))
(define-fun .def_1072 () Int (+ call_mesi.exclusive_me .def_1071))
(define-fun .def_1073 () Bool (= .def_1072 1))
(define-fun .def_1074 () Bool (or .def_978 .def_1073))
(define-fun .def_1078 () Bool (and .def_1074 .def_1077))
(define-fun .def_1081 () Bool (and .def_1078 .def_1080))
(define-fun .def_1085 () Bool (and .def_1081 .def_1084))
(define-fun .def_1088 () Bool (and .def_1085 .def_1087))
(define-fun .def_1066 () Bool (= call_mesi.invalid_me call_mesi.ite29.next))
(define-fun .def_1067 () Bool (or param_etat_me4.next .def_1066))
(define-fun .def_1063 () Bool (= call_mesi.ite28.next call_mesi.ite29.next))
(define-fun .def_1043 () Bool (not param_etat_me4.next))
(define-fun .def_1064 () Bool (or .def_1043 .def_1063))
(define-fun .def_1059 () Bool (= call_mesi.shared_me call_mesi.ite21.next))
(define-fun .def_1060 () Bool (or param_etat_me4.next .def_1059))
(define-fun .def_1056 () Bool (= call_mesi.ite20.next call_mesi.ite21.next))
(define-fun .def_1057 () Bool (or .def_1043 .def_1056))
(define-fun .def_1051 () Bool (= call_mesi.exclusive_me call_mesi.ite13.next))
(define-fun .def_1052 () Bool (or param_etat_me4.next .def_1051))
(define-fun .def_1048 () Bool (= call_mesi.ite12.next call_mesi.ite13.next))
(define-fun .def_1049 () Bool (or .def_1043 .def_1048))
(define-fun .def_1042 () Bool (= call_mesi.ite4.next call_mesi.ite5.next))
(define-fun .def_1044 () Bool (or .def_1042 .def_1043))
(define-fun .def_1039 () Bool (= call_mesi.modified_me call_mesi.ite5.next))
(define-fun .def_1041 () Bool (or .def_1039 param_etat_me4.next))
(define-fun .def_1045 () Bool (and .def_1041 .def_1044))
(define-fun .def_1050 () Bool (and .def_1045 .def_1049))
(define-fun .def_1053 () Bool (and .def_1050 .def_1052))
(define-fun .def_1058 () Bool (and .def_1053 .def_1057))
(define-fun .def_1061 () Bool (and .def_1058 .def_1060))
(define-fun .def_1065 () Bool (and .def_1061 .def_1064))
(define-fun .def_1068 () Bool (and .def_1065 .def_1067))
(define-fun .def_1025 () Int (* (- 1) call_mesi.ite28.next))
(define-fun .def_1030 () Int (+ call_mesi.invalid_me .def_1025))
(define-fun .def_1031 () Int (+ call_mesi.shared_me .def_1030))
(define-fun .def_1032 () Int (+ call_mesi.exclusive_me .def_1031))
(define-fun .def_1033 () Int (+ call_mesi.modified_me .def_1032))
(define-fun .def_1034 () Bool (= .def_1033 1))
(define-fun .def_1036 () Bool (or .def_1034 .def_1035))
(define-fun .def_1011 () Int (* (- 1) call_mesi.ite27.next))
(define-fun .def_1016 () Int (+ call_mesi.invalid_me .def_1011))
(define-fun .def_1017 () Int (+ call_mesi.shared_me .def_1016))
(define-fun .def_1018 () Int (+ call_mesi.exclusive_me .def_1017))
(define-fun .def_1019 () Int (+ call_mesi.modified_me .def_1018))
(define-fun .def_1020 () Bool (= .def_1019 1))
(define-fun .def_1022 () Bool (or .def_1020 .def_1021))
(define-fun .def_999 () Int (* (- 1) call_mesi.ite17.next))
(define-fun .def_1003 () Int (+ call_mesi.shared_me .def_999))
(define-fun .def_1004 () Int (+ call_mesi.exclusive_me .def_1003))
(define-fun .def_1005 () Int (+ call_mesi.modified_me .def_1004))
(define-fun .def_1006 () Bool (= .def_1005 2))
(define-fun .def_1008 () Bool (or .def_1006 .def_1007))
(define-fun .def_994 () Bool (= call_mesi.modified_me call_mesi.ite4.next))
(define-fun .def_996 () Bool (or .def_994 call_mesi.garde_me4.next))
(define-fun .def_989 () Bool (= call_mesi.modified_me call_mesi.ite3.next))
(define-fun .def_991 () Bool (or .def_989 call_mesi.garde_me3.next))
(define-fun .def_985 () Bool (= call_mesi.modified_me call_mesi.ite2.next))
(define-fun .def_986 () Bool (or call_mesi.garde_me2.next .def_985))
(define-fun .def_981 () Bool (= call_mesi.modified_me call_mesi.ite.next))
(define-fun .def_983 () Bool (or .def_981 call_mesi.garde_me1.next))
(define-fun .def_974 () Int (* (- 1) call_mesi.ite2.next))
(define-fun .def_975 () Int (+ call_mesi.modified_me .def_974))
(define-fun .def_976 () Bool (= .def_975 1))
(define-fun .def_979 () Bool (or .def_976 .def_978))
(define-fun .def_984 () Bool (and .def_979 .def_983))
(define-fun .def_987 () Bool (and .def_984 .def_986))
(define-fun .def_992 () Bool (and .def_987 .def_991))
(define-fun .def_997 () Bool (and .def_992 .def_996))
(define-fun .def_1009 () Bool (and .def_997 .def_1008))
(define-fun .def_1023 () Bool (and .def_1009 .def_1022))
(define-fun .def_1037 () Bool (and .def_1023 .def_1036))
(define-fun .def_1069 () Bool (and .def_1037 .def_1068))
(define-fun .def_1089 () Bool (and .def_1069 .def_1088))
(define-fun .def_1105 () Bool (and .def_1089 .def_1104))
(define-fun .def_1126 () Bool (and .def_1105 .def_1125))
(define-fun .def_1135 () Bool (and .def_1126 .def_1134))
(define-fun .def_1138 () Bool (and .def_1135 .def_1137))
(define-fun .def_1150 () Bool (and .def_1138 .def_1149))
(define-fun .def_1161 () Bool (and .def_1150 .def_1160))
(define-fun .def_1165 () Bool (and .def_1161 .def_1164))
(define-fun .def_1169 () Bool (and .def_1165 .def_1168))
(define-fun .def_1173 () Bool (and .def_1169 .def_1172))
(define-fun .def_1177 () Bool (and .def_1173 .def_1176))
(define-fun .def_1182 () Bool (and .def_1177 .def_1181))
(define-fun .def_1377 () Bool (and .def_1182 .def_1376))
(assert .def_1377)
